data;
param Title := HelianthusAnnuus;
param start := 116_0_R;
set V :=
44_0_R
21_0_R
22_0_F
36_0_F
86_0_F
87_0_F
116_0_R
115_0_F
53_0_F
9_0_F
7_0_R
144_0_R
150_0_R
31_0_R
13_0_R
15_0_R
128_0_R
41_0_F
40_0_R
142_0_F
147_0_R
153_0_F
148_0_R
68_0_R
17_0_R
18_0_R
33_0_R
80_0_R
145_0_R
146_0_F
122_0_F
101_0_F
94_0_F
95_0_R
81_0_R
82_0_R
130_0_R
47_0_R
45_0_R
51_0_R
78_0_F
96_0_R
104_0_F
26_0_R
25_0_F
107_0_R
105_0_F
1_0_F
0_0_F
59_0_F
60_0_F
139_0_R
135_0_R
110_0_R
109_0_R
12_0_R
10_0_F
139_1_F
60_1_R
59_1_R
0_1_R
1_1_R
105_1_R
107_1_F
25_1_R
26_1_F
104_1_R
96_1_F
78_1_R
51_1_F
45_1_F
47_1_F
130_1_F
82_1_F
81_1_F
95_1_F
94_1_R
101_1_R
122_1_R
146_1_R
145_1_F
80_1_F
33_1_F
18_1_F
17_1_F
68_1_F
148_1_F
153_1_R
147_1_F
142_1_R
40_1_F
;
set O :=
44_0_R	21_0_R
21_0_R	22_0_F
22_0_F	36_0_F
36_0_F	86_0_F
86_0_F	87_0_F
87_0_F	116_0_R
116_0_R	115_0_F
115_0_F	53_0_F
53_0_F	9_0_F
9_0_F	7_0_R
7_0_R	144_0_R
144_0_R	150_0_R
150_0_R	31_0_R
31_0_R	13_0_R
13_0_R	15_0_R
15_0_R	128_0_R
128_0_R	41_0_F
41_0_F	40_0_R
40_0_R	142_0_F
142_0_F	147_0_R
147_0_R	153_0_F
153_0_F	148_0_R
148_0_R	68_0_R
68_0_R	17_0_R
17_0_R	18_0_R
18_0_R	33_0_R
33_0_R	80_0_R
80_0_R	145_0_R
145_0_R	146_0_F
146_0_F	122_0_F
122_0_F	101_0_F
101_0_F	94_0_F
94_0_F	95_0_R
95_0_R	81_0_R
81_0_R	82_0_R
82_0_R	130_0_R
130_0_R	47_0_R
47_0_R	45_0_R
45_0_R	51_0_R
51_0_R	78_0_F
78_0_F	96_0_R
96_0_R	104_0_F
104_0_F	26_0_R
26_0_R	25_0_F
25_0_F	107_0_R
107_0_R	105_0_F
105_0_F	1_0_F
1_0_F	0_0_F
0_0_F	59_0_F
59_0_F	60_0_F
60_0_F	139_0_R
139_0_R	135_0_R
135_0_R	110_0_R
110_0_R	109_0_R
109_0_R	12_0_R
12_0_R	10_0_F
10_0_F	139_1_F
139_1_F	60_1_R
60_1_R	59_1_R
59_1_R	0_1_R
0_1_R	1_1_R
1_1_R	105_1_R
105_1_R	107_1_F
107_1_F	25_1_R
25_1_R	26_1_F
26_1_F	104_1_R
104_1_R	96_1_F
96_1_F	78_1_R
78_1_R	51_1_F
51_1_F	45_1_F
45_1_F	47_1_F
47_1_F	130_1_F
130_1_F	82_1_F
82_1_F	81_1_F
81_1_F	95_1_F
95_1_F	94_1_R
94_1_R	101_1_R
101_1_R	122_1_R
122_1_R	146_1_R
146_1_R	145_1_F
145_1_F	80_1_F
80_1_F	33_1_F
33_1_F	18_1_F
18_1_F	17_1_F
17_1_F	68_1_F
68_1_F	148_1_F
148_1_F	153_1_R
153_1_R	147_1_F
147_1_F	142_1_R
142_1_R	40_1_F
40_1_F	44_0_R
;
set L :=
115_0_F	9_0_F
33_1_F	142_1_R
145_1_F	148_1_F
18_1_F	44_0_R
18_1_F	40_1_F
142_1_R	21_0_R
116_0_R	9_0_F
116_0_R	115_0_F
116_0_R	53_0_F
107_0_R	135_0_R
109_0_R	139_1_F
109_0_R	12_0_R
109_0_R	10_0_F
109_0_R	60_1_R
109_0_R	1_1_R
1_1_R	96_1_F
94_1_R	18_1_F
18_0_R	94_0_F
18_0_R	82_0_R
150_0_R	13_0_R
150_0_R	128_0_R
25_1_R	78_1_R
21_0_R	36_0_F
122_0_F	82_0_R
139_0_R	135_0_R
130_1_F	101_1_R
31_0_R	128_0_R
94_0_F	47_0_R
7_0_R	150_0_R
82_1_F	101_1_R
82_1_F	33_1_F
82_1_F	145_1_F
82_1_F	18_1_F
82_1_F	122_1_R
44_0_R	21_0_R
60_1_R	96_1_F
60_1_R	25_1_R
101_1_R	17_1_F
78_1_R	82_1_F
36_0_F	86_0_F
40_1_F	21_0_R
17_0_R	101_0_F
17_0_R	122_0_F
17_1_F	44_0_R
142_0_F	33_0_R
10_0_F	107_1_F
10_0_F	25_1_R
1_0_F	135_0_R
144_0_R	150_0_R
144_0_R	31_0_R
139_1_F	25_1_R
13_0_R	128_0_R
101_0_F	130_0_R
101_0_F	82_0_R
145_0_R	82_0_R
96_0_R	1_0_F
96_0_R	60_0_F
86_0_F	87_0_F
107_1_F	78_1_R
128_0_R	17_0_R
128_0_R	148_0_R
128_0_R	142_0_F
128_0_R	40_0_R
128_0_R	18_0_R
9_0_F	150_0_R
9_0_F	7_0_R
9_0_F	144_0_R
53_0_F	9_0_F
130_0_R	96_0_R
87_0_F	116_0_R
110_0_R	109_0_R
25_0_F	135_0_R
25_0_F	139_0_R
25_0_F	60_0_F
47_0_R	96_0_R
105_1_R	78_1_R
60_0_F	135_0_R
33_0_R	82_0_R
122_1_R	17_1_F
122_1_R	148_1_F
47_1_F	94_1_R
148_1_F	44_0_R
148_1_F	21_0_R
148_0_R	122_0_F
148_0_R	145_0_R
105_0_F	135_0_R
82_0_R	78_0_F
82_0_R	96_0_R
12_0_R	107_1_F
40_0_R	18_0_R
96_1_F	47_1_F
96_1_F	130_1_F
96_1_F	82_1_F
78_0_F	107_0_R
78_0_F	105_0_F
78_0_F	25_0_F
135_0_R	110_0_R
135_0_R	109_0_R
;
param l :=
44_0_R	21_0_R	-100.0
21_0_R	22_0_F	-100.0
22_0_F	36_0_F	-100.0
36_0_F	86_0_F	-100.0
86_0_F	87_0_F	-100.0
87_0_F	116_0_R	-100.0
116_0_R	115_0_F	-100.0
115_0_F	53_0_F	-100.0
53_0_F	9_0_F	-100.0
9_0_F	7_0_R	-100.0
7_0_R	144_0_R	-100.0
144_0_R	150_0_R	-100.0
150_0_R	31_0_R	-100.0
31_0_R	13_0_R	-100.0
13_0_R	15_0_R	-100.0
15_0_R	128_0_R	-100.0
128_0_R	41_0_F	-100.0
41_0_F	40_0_R	-100.0
40_0_R	142_0_F	-100.0
142_0_F	147_0_R	-100.0
147_0_R	153_0_F	-100.0
153_0_F	148_0_R	-100.0
148_0_R	68_0_R	-100.0
68_0_R	17_0_R	-100.0
17_0_R	18_0_R	-100.0
18_0_R	33_0_R	-100.0
33_0_R	80_0_R	-100.0
80_0_R	145_0_R	-100.0
145_0_R	146_0_F	-100.0
146_0_F	122_0_F	-100.0
122_0_F	101_0_F	-100.0
101_0_F	94_0_F	-100.0
94_0_F	95_0_R	-100.0
95_0_R	81_0_R	-100.0
81_0_R	82_0_R	-100.0
82_0_R	130_0_R	-100.0
130_0_R	47_0_R	-100.0
47_0_R	45_0_R	-100.0
45_0_R	51_0_R	-100.0
51_0_R	78_0_F	-100.0
78_0_F	96_0_R	-100.0
96_0_R	104_0_F	-100.0
104_0_F	26_0_R	-100.0
26_0_R	25_0_F	-100.0
25_0_F	107_0_R	-100.0
107_0_R	105_0_F	-100.0
105_0_F	1_0_F	-100.0
1_0_F	0_0_F	-100.0
0_0_F	59_0_F	-100.0
59_0_F	60_0_F	-100.0
60_0_F	139_0_R	-100.0
139_0_R	135_0_R	-100.0
135_0_R	110_0_R	-100.0
110_0_R	109_0_R	-100.0
109_0_R	12_0_R	-100.0
12_0_R	10_0_F	-100.0
10_0_F	139_1_F	-100.0
139_1_F	60_1_R	-100.0
60_1_R	59_1_R	-100.0
59_1_R	0_1_R	-100.0
0_1_R	1_1_R	-100.0
1_1_R	105_1_R	-100.0
105_1_R	107_1_F	-100.0
107_1_F	25_1_R	-100.0
25_1_R	26_1_F	-100.0
26_1_F	104_1_R	-100.0
104_1_R	96_1_F	-100.0
96_1_F	78_1_R	-100.0
78_1_R	51_1_F	-100.0
51_1_F	45_1_F	-100.0
45_1_F	47_1_F	-100.0
47_1_F	130_1_F	-100.0
130_1_F	82_1_F	-100.0
82_1_F	81_1_F	-100.0
81_1_F	95_1_F	-100.0
95_1_F	94_1_R	-100.0
94_1_R	101_1_R	-100.0
101_1_R	122_1_R	-100.0
122_1_R	146_1_R	-100.0
146_1_R	145_1_F	-100.0
145_1_F	80_1_F	-100.0
80_1_F	33_1_F	-100.0
33_1_F	18_1_F	-100.0
18_1_F	17_1_F	-100.0
17_1_F	68_1_F	-100.0
68_1_F	148_1_F	-100.0
148_1_F	153_1_R	-100.0
153_1_R	147_1_F	-100.0
147_1_F	142_1_R	-100.0
142_1_R	40_1_F	-100.0
40_1_F	44_0_R	-150929
;
param w :=
44_0_R	3409.0
21_0_R	9304.0
22_0_F	211.0
36_0_F	6186.0
86_0_F	9883.0
87_0_F	6287.0
116_0_R	20311.0
115_0_F	855.0
53_0_F	3259.0
9_0_F	6120.0
7_0_R	808.0
144_0_R	3633.0
150_0_R	3415.0
31_0_R	1407.0
13_0_R	573.0
15_0_R	127.0
128_0_R	9540.0
41_0_F	276.0
40_0_R	585.0
142_0_F	564.0
147_0_R	162.0
153_0_F	112.0
148_0_R	1414.0
68_0_R	160.0
17_0_R	1277.0
18_0_R	1612.0
33_0_R	713.0
80_0_R	301.0
145_0_R	926.0
146_0_F	229.0
122_0_F	865.0
101_0_F	905.0
94_0_F	675.0
95_0_R	524.0
81_0_R	330.0
82_0_R	3256.0
130_0_R	508.0
47_0_R	332.0
45_0_R	184.0
51_0_R	1148.0
78_0_F	2540.0
96_0_R	1472.0
104_0_F	237.0
26_0_R	406.0
25_0_F	1506.0
107_0_R	1012.0
105_0_F	517.0
1_0_F	1219.0
0_0_F	134.0
59_0_F	168.0
60_0_F	1333.0
139_0_R	432.0
135_0_R	9029.0
110_0_R	953.0
109_0_R	6854.0
12_0_R	1058.0
10_0_F	1014.0
139_1_F	432.0
60_1_R	1333.0
59_1_R	168.0
0_1_R	134.0
1_1_R	1219.0
105_1_R	517.0
107_1_F	1012.0
25_1_R	1506.0
26_1_F	406.0
104_1_R	237.0
96_1_F	1472.0
78_1_R	2540.0
51_1_F	1148.0
45_1_F	184.0
47_1_F	332.0
130_1_F	508.0
82_1_F	3256.0
81_1_F	330.0
95_1_F	524.0
94_1_R	675.0
101_1_R	905.0
122_1_R	865.0
146_1_R	229.0
145_1_F	926.0
80_1_F	301.0
33_1_F	713.0
18_1_F	1612.0
17_1_F	1277.0
68_1_F	160.0
148_1_F	1414.0
153_1_R	112.0
147_1_F	162.0
142_1_R	564.0
40_1_F	585.0
;
param b_inf :=
115_0_F	9_0_F	2960.0
33_1_F	142_1_R	3889.0
145_1_F	148_1_F	3340.0
18_1_F	44_0_R	3549.0
18_1_F	40_1_F	2925.0
142_1_R	21_0_R	3784.0
116_0_R	9_0_F	3713.0
116_0_R	115_0_F	0.0
116_0_R	53_0_F	465.0
107_0_R	135_0_R	3002.0
109_0_R	139_1_F	1664.0
109_0_R	12_0_R	0.0
109_0_R	10_0_F	744.0
109_0_R	60_1_R	2004.0
109_0_R	1_1_R	3298.0
1_1_R	96_1_F	2991.0
94_1_R	18_1_F	3165.0
18_0_R	94_0_F	3165.0
18_0_R	82_0_R	4349.0
150_0_R	13_0_R	1155.0
150_0_R	128_0_R	1580.0
25_1_R	78_1_R	1577.0
21_0_R	36_0_F	0.0
122_0_F	82_0_R	1803.0
139_0_R	135_0_R	0.0
130_1_F	101_1_R	4212.0
31_0_R	128_0_R	218.0
94_0_F	47_0_R	4121.0
7_0_R	150_0_R	3313.0
82_1_F	101_1_R	1044.0
82_1_F	33_1_F	3782.0
82_1_F	145_1_F	2740.0
82_1_F	18_1_F	4349.0
82_1_F	122_1_R	1803.0
44_0_R	21_0_R	0.0
60_1_R	96_1_F	4167.0
60_1_R	25_1_R	2397.0
101_1_R	17_1_F	3839.0
78_1_R	82_1_F	1551.0
36_0_F	86_0_F	0.0
40_1_F	21_0_R	3321.0
17_0_R	101_0_F	3818.0
17_0_R	122_0_F	3069.0
17_1_F	44_0_R	2363.0
142_0_F	33_0_R	3889.0
10_0_F	107_1_F	3083.0
10_0_F	25_1_R	3906.0
1_0_F	135_0_R	1482.0
144_0_R	150_0_R	0.0
144_0_R	31_0_R	3055.0
139_1_F	25_1_R	3600.0
13_0_R	128_0_R	0.0
101_0_F	130_0_R	4157.0
101_0_F	82_0_R	1044.0
145_0_R	82_0_R	2689.0
96_0_R	1_0_F	2971.0
96_0_R	60_0_F	4167.0
86_0_F	87_0_F	0.0
107_1_F	78_1_R	2995.0
128_0_R	17_0_R	2359.0
128_0_R	148_0_R	984.0
128_0_R	142_0_F	486.0
128_0_R	40_0_R	0.0
128_0_R	18_0_R	3512.0
9_0_F	150_0_R	4024.0
9_0_F	7_0_R	0.0
9_0_F	144_0_R	490.0
53_0_F	9_0_F	0.0
130_0_R	96_0_R	3606.0
87_0_F	116_0_R	0.0
110_0_R	109_0_R	0.0
25_0_F	135_0_R	3891.0
25_0_F	139_0_R	3601.0
25_0_F	60_0_F	2419.0
47_0_R	96_0_R	3396.0
105_1_R	78_1_R	3914.0
60_0_F	135_0_R	95.0
33_0_R	82_0_R	3782.0
122_1_R	17_1_F	3069.0
122_1_R	148_1_F	4310.0
47_1_F	94_1_R	4121.0
148_1_F	44_0_R	978.0
148_1_F	21_0_R	4296.0
148_0_R	122_0_F	4321.0
148_0_R	145_0_R	3323.0
105_0_F	135_0_R	2538.0
82_0_R	78_0_F	1527.0
82_0_R	96_0_R	3994.0
12_0_R	107_1_F	3891.0
40_0_R	18_0_R	2940.0
96_1_F	47_1_F	3419.0
96_1_F	130_1_F	3606.0
96_1_F	82_1_F	3993.0
78_0_F	107_0_R	2995.0
78_0_F	105_0_F	3914.0
78_0_F	25_0_F	1613.0
135_0_R	110_0_R	0.0
135_0_R	109_0_R	606.0
;
param b_sup :=
115_0_F	9_0_F	3168.0
33_1_F	142_1_R	4165.0
145_1_F	148_1_F	3587.0
18_1_F	44_0_R	3810.0
18_1_F	40_1_F	3101.0
142_1_R	21_0_R	3978.0
116_0_R	9_0_F	3951.0
116_0_R	115_0_F	3.0
116_0_R	53_0_F	867.0
107_0_R	135_0_R	3238.0
109_0_R	139_1_F	1866.0
109_0_R	12_0_R	7.0
109_0_R	10_0_F	959.0
109_0_R	60_1_R	2221.0
109_0_R	1_1_R	3588.0
1_1_R	96_1_F	3224.0
94_1_R	18_1_F	3344.0
18_0_R	94_0_F	3344.0
18_0_R	82_0_R	4455.0
150_0_R	13_0_R	1330.0
150_0_R	128_0_R	1874.0
25_1_R	78_1_R	1842.0
21_0_R	36_0_F	172.0
122_0_F	82_0_R	2095.0
139_0_R	135_0_R	1.0
130_1_F	101_1_R	4390.0
31_0_R	128_0_R	569.0
94_0_F	47_0_R	4198.0
7_0_R	150_0_R	3531.0
82_1_F	101_1_R	1177.0
82_1_F	33_1_F	3974.0
82_1_F	145_1_F	2950.0
82_1_F	18_1_F	4455.0
82_1_F	122_1_R	2095.0
44_0_R	21_0_R	62.0
60_1_R	96_1_F	4346.0
60_1_R	25_1_R	2528.0
101_1_R	17_1_F	4023.0
78_1_R	82_1_F	1817.0
36_0_F	86_0_F	71.0
40_1_F	21_0_R	3526.0
17_0_R	101_0_F	3995.0
17_0_R	122_0_F	3312.0
17_1_F	44_0_R	2585.0
142_0_F	33_0_R	4165.0
10_0_F	107_1_F	3230.0
10_0_F	25_1_R	4151.0
1_0_F	135_0_R	1726.0
144_0_R	150_0_R	58.0
144_0_R	31_0_R	3331.0
139_1_F	25_1_R	3846.0
13_0_R	128_0_R	10.0
101_0_F	130_0_R	4400.0
101_0_F	82_0_R	1177.0
145_0_R	82_0_R	2960.0
96_0_R	1_0_F	3218.0
96_0_R	60_0_F	4346.0
86_0_F	87_0_F	38.0
107_1_F	78_1_R	3240.0
128_0_R	17_0_R	2598.0
128_0_R	148_0_R	1208.0
128_0_R	142_0_F	645.0
128_0_R	40_0_R	176.0
128_0_R	18_0_R	3776.0
9_0_F	150_0_R	4271.0
9_0_F	7_0_R	3.0
9_0_F	144_0_R	802.0
53_0_F	9_0_F	30.0
130_0_R	96_0_R	3871.0
87_0_F	116_0_R	39.0
110_0_R	109_0_R	24.0
25_0_F	135_0_R	4119.0
25_0_F	139_0_R	3759.0
25_0_F	60_0_F	2584.0
47_0_R	96_0_R	3554.0
105_1_R	78_1_R	4114.0
60_0_F	135_0_R	380.0
33_0_R	82_0_R	3974.0
122_1_R	17_1_F	3312.0
122_1_R	148_1_F	4483.0
47_1_F	94_1_R	4198.0
148_1_F	44_0_R	1248.0
148_1_F	21_0_R	4460.0
148_0_R	122_0_F	4479.0
148_0_R	145_0_R	3588.0
105_0_F	135_0_R	2797.0
82_0_R	78_0_F	1872.0
82_0_R	96_0_R	4196.0
12_0_R	107_1_F	4122.0
40_0_R	18_0_R	3168.0
96_1_F	47_1_F	3575.0
96_1_F	130_1_F	3871.0
96_1_F	82_1_F	4193.0
78_0_F	107_0_R	3240.0
78_0_F	105_0_F	4114.0
78_0_F	25_0_F	1852.0
135_0_R	110_0_R	38.0
135_0_R	109_0_R	904.0
;
